sat
(:added-eqs                       11
 :arith-eq-adapter                3
 :arith-conflicts                 2
 :arith-diseq                     2
 :arith-grobner-calls             1
 :arith-horner-cross-nested-forms 1
 :arith-lower                     2
 :arith-make-feasible             6
 :arith-max-columns               48
 :arith-max-rows                  8
 :arith-nla-propagate-bounds      1
 :arith-nla-propagate-eq          6
 :arith-nra-calls                 1
 :arith-upper                     24
 :binary-propagations             10
 :conflicts                       2
 :decisions                       6
 :final-checks                    3
 :max-memory                      28.60
 :memory                          20.38
 :mk-bool-var                     31
 :mk-clause-binary                6
 :nlsat-conflicts                 2
 :nlsat-propagations              84
 :nlsat-restarts                  1
 :nlsat-stages                    66
 :num-allocs                      13900455
 :num-checks                      1
 :propagations                    10
 :rlimit-count                    238355
 :sat-backjumps                   501
 :sat-conflicts                   501
 :sat-decisions                   1271
 :sat-del-clause                  5517
 :sat-elim-bool-vars-res          888
 :sat-elim-clauses                1010
 :sat-elim-literals               732
 :sat-minimized-lits              2174
 :sat-mk-clause-2ary              3628
 :sat-mk-clause-3ary              2120
 :sat-mk-clause-nary              15504
 :sat-mk-var                      3589
 :sat-probing-assigned            82
 :sat-propagations-2ary           36109
 :sat-propagations-nary           110401
 :sat-restarts                    46
 :sat-scc-elim-vars               5
 :sat-subs-resolution             73
 :sat-subs-resolution-dyn         22
 :sat-subsumed                    631
 :sat-units                       392
 :time                            0.07
 :total-time                      0.08)
